(declare-fun b_ack!104 () (_ BitVec 32))
(declare-fun a_ack!106 () (_ BitVec 32))
(declare-fun c_ack!105 () (_ BitVec 64))
(assert (fp.eq ((_ to_fp 11 53) roundNearestTiesToEven (bvsub a_ack!106 b_ack!104))
       ((_ to_fp 11 53) #x0000000000000000)))
(assert (fp.eq ((_ to_fp 11 53) roundNearestTiesToEven (bvsub a_ack!106 b_ack!104))
       ((_ to_fp 11 53) #x0000000000000000)))
(assert (not (bvslt b_ack!104 #x00000000)))
(assert (not (bvslt a_ack!106 b_ack!104)))
(assert (fp.lt ((_ to_fp 11 53) c_ack!105) ((_ to_fp 11 53) #xbff0000000000000)))

(check-sat)
(exit)
